(set-logic QF_S)
(declare-fun G () String)
(declare-fun E () String)
(assert (= (str.++  "ebd" E "ccdebcdcecbeceecce" E "b" E "dd" E "d" E E "ecbeebbbbdb" E "aebdcbbcdecbdaeeacb" E E "bca" E "dcceed" E "beddc" E "acdd")  (str.++  G "d" "") ))
(check-sat)
(get-model)
